problems/csplib-prob065/opd-models/noch/O0/minion/model_1-toy_bibd_10_37_14-solution000001.solution
language Essence 1.3

letting lambda be 5
letting opd be
        {{4, 5, 6, 8, 11, 12, 15, 16, 22, 25, 29, 32, 33, 37}, {4, 5, 6, 9, 14, 17, 18, 19, 20, 24, 25, 28, 29, 34},
         {4, 5, 6, 10, 11, 13, 14, 18, 21, 26, 30, 35, 36, 37}, {6, 7, 8, 9, 12, 13, 14, 18, 22, 27, 31, 33, 34, 35},
         {7, 8, 9, 10, 11, 15, 16, 17, 18, 28, 29, 30, 31, 36}, {7, 8, 9, 10, 11, 19, 20, 21, 22, 24, 25, 26, 27, 37},
         {10, 12, 13, 14, 15, 16, 17, 18, 23, 24, 25, 26, 27, 32},
         {11, 12, 13, 14, 19, 20, 21, 22, 23, 28, 29, 30, 31, 32},
         {15, 16, 17, 18, 19, 20, 21, 22, 23, 33, 34, 35, 36, 37},
         {24, 25, 26, 27, 28, 29, 30, 31, 32, 33, 34, 35, 36, 37}}
$ Visualisation for opd
$  4  5  6  8 11 12 15 16 22 25 29 32 33 37
$  4  5  6  9 14 17 18 19 20 24 25 28 29 34
$  4  5  6 10 11 13 14 18 21 26 30 35 36 37
$  6  7  8  9 12 13 14 18 22 27 31 33 34 35
$  7  8  9 10 11 15 16 17 18 28 29 30 31 36
$  7  8  9 10 11 19 20 21 22 24 25 26 27 37
$ 10 12 13 14 15 16 17 18 23 24 25 26 27 32
$ 11 12 13 14 19 20 21 22 23 28 29 30 31 32
$ 15 16 17 18 19 20 21 22 23 33 34 35 36 37
$ 24 25 26 27 28 29 30 31 32 33 34 35 36 37

